79 8
90 42
50 75
19 99
11 38
53 10
55 43
50 89
52 45
38 74
59 84
52 6
93 4
97 27
84 22
22 71
51 66
3 31
91 9
65 20
67 13
49 42
53 6
60 84
5 98
91 40
2 71
56 38
36 12
78 71
2 27
7 81
28 37
99 30
10 99
52 69
62 8
69 87
46 48
78 39
42 6
97 80
65 34
35 44
15 57
19 80
43 7
5 85
42 17
49 87